
Gurobi 11.0.3 (mac64[x86]) logging started Tue Apr 15 14:17:35 2025

Set parameter LogFile to value "Results/SanityCheck/try_6_big.log"
Set parameter TimeLimit to value 84600
Set parameter Method to value 2
Set parameter Crossover to value 0
Set parameter BarHomogeneous to value 1
Set parameter BarConvTol to value 1e-10
Gurobi Optimizer version 11.0.3 build v11.0.3rc0 (mac64[x86] - Darwin 23.4.0 23E214)

CPU model: Intel(R) Core(TM) i7-1060NG7 CPU @ 1.20GHz
Thread count: 4 physical cores, 8 logical processors, using up to 8 threads

Optimize a model with 1496320 rows, 1917920 columns and 7073808 nonzeros
Model fingerprint: 0x335eb355
Coefficient statistics:
  Matrix range     [2e-01, 1e+00]
  Objective range  [6e-05, 5e+00]
  Bounds range     [0e+00, 0e+00]
  RHS range        [1e-02, 1e+03]
Presolve removed 1226656 rows and 1422144 columns
Presolve time: 5.03s

Barrier solved model in 0 iterations and 5.03 seconds (2.63 work units)
Model is infeasible or unbounded

Gurobi 11.0.3 (mac64[x86]) logging started Tue Apr 15 14:22:12 2025

Set parameter LogFile to value "Results/SanityCheck/try_6_big.log"
Set parameter TimeLimit to value 84600
Set parameter Method to value 2
Set parameter Crossover to value 0
Set parameter BarHomogeneous to value 1
Set parameter BarConvTol to value 1e-10
Gurobi Optimizer version 11.0.3 build v11.0.3rc0 (mac64[x86] - Darwin 23.4.0 23E214)

CPU model: Intel(R) Core(TM) i7-1060NG7 CPU @ 1.20GHz
Thread count: 4 physical cores, 8 logical processors, using up to 8 threads

Optimize a model with 1496320 rows, 1917920 columns and 7073808 nonzeros
Model fingerprint: 0x2dbeb55a
Coefficient statistics:
  Matrix range     [2e-01, 1e+00]
  Objective range  [6e-05, 5e+00]
  Bounds range     [0e+00, 0e+00]
  RHS range        [1e-02, 1e+03]
Presolve removed 854304 rows and 918464 columns (presolve time = 6s) ...
Presolve removed 1187632 rows and 1266736 columns (presolve time = 10s) ...
Presolve removed 1226656 rows and 1422144 columns
Presolve time: 14.48s

Barrier solved model in 0 iterations and 14.48 seconds (2.63 work units)
Model is infeasible or unbounded

Gurobi 11.0.3 (mac64[x86]) logging started Tue Apr 15 14:24:41 2025

Set parameter LogFile to value "Results/SanityCheck/try_6_big.log"
Set parameter TimeLimit to value 84600
Set parameter Method to value 2
Set parameter Crossover to value 0
Set parameter BarHomogeneous to value 1
Set parameter BarConvTol to value 1e-10
Gurobi Optimizer version 11.0.3 build v11.0.3rc0 (mac64[x86] - Darwin 23.4.0 23E214)

CPU model: Intel(R) Core(TM) i7-1060NG7 CPU @ 1.20GHz
Thread count: 4 physical cores, 8 logical processors, using up to 8 threads

Optimize a model with 1496320 rows, 1917920 columns and 7073808 nonzeros
Model fingerprint: 0x5c9ad134
Coefficient statistics:
  Matrix range     [2e-01, 1e+00]
  Objective range  [6e-05, 5e+00]
  Bounds range     [0e+00, 0e+00]
  RHS range        [1e-02, 1e+03]
Presolve removed 1187632 rows and 1266736 columns (presolve time = 5s) ...
Presolve removed 1226656 rows and 1422144 columns
Presolve time: 5.88s

Barrier solved model in 0 iterations and 5.88 seconds (2.63 work units)
Model is infeasible or unbounded

Gurobi 11.0.3 (mac64[x86]) logging started Tue Apr 15 14:27:02 2025

Set parameter LogFile to value "Results/SanityCheck/try_6_big.log"
Set parameter TimeLimit to value 84600
Set parameter Method to value 2
Set parameter Crossover to value 0
Set parameter BarHomogeneous to value 1
Set parameter BarConvTol to value 1e-10
Gurobi Optimizer version 11.0.3 build v11.0.3rc0 (mac64[x86] - Darwin 23.4.0 23E214)

CPU model: Intel(R) Core(TM) i7-1060NG7 CPU @ 1.20GHz
Thread count: 4 physical cores, 8 logical processors, using up to 8 threads

Optimize a model with 1496320 rows, 1917920 columns and 7073808 nonzeros
Model fingerprint: 0x1d919167
Coefficient statistics:
  Matrix range     [2e-01, 1e+00]
  Objective range  [6e-05, 5e+00]
  Bounds range     [0e+00, 0e+00]
  RHS range        [1e-02, 1e+03]
Presolve removed 1231296 rows and 1423104 columns (presolve time = 5s) ...
Presolve removed 1231392 rows and 1423104 columns
Presolve time: 5.36s
Presolved: 264928 rows, 494912 columns, 1757664 nonzeros
Ordering time: 0.02s

Barrier statistics:
 AA' NZ     : 1.899e+04
 Factor NZ  : 7.997e+04 (roughly 6 MB of memory)
 Factor Ops : 1.675e+06 (less than 1 second per iteration)
 Threads    : 4

                  Objective                Residual
Iter       Primal          Dual         Primal    Dual     Compl     Time
   0   3.49329367e+05  6.24240040e+07  5.04e+02 6.22e+03  1.07e+06     6s
   1  -5.35157537e+05  1.23790053e+08  9.65e+01 4.22e+03  2.22e+05     6s
   2  -5.76999216e+05  6.76767576e+07  1.24e+01 5.64e+02  3.46e+04     6s
   3  -5.64114681e+05  1.75247013e+07  8.44e-14 1.67e+01  2.17e+03     6s
   4  -3.48177308e+05  9.10686789e+05  1.04e-12 1.12e+00  1.45e+02     6s
   5  -8.18694869e+04  1.63016198e+05  1.58e-11 1.54e-01  2.55e+01     6s
   6  -1.03329614e+04  6.41974372e+04  6.02e-12 4.41e-02  7.31e+00     6s
   7   2.37401621e+04  3.92957400e+04  1.47e-11 8.17e-03  1.50e+00     6s
   8   3.09001240e+04  3.37859263e+04  8.40e-12 1.40e-03  2.79e-01     6s
   9   3.21564843e+04  3.30674396e+04  1.18e-11 5.07e-04  8.77e-02     6s
  10   3.23447160e+04  3.28986727e+04  9.63e-12 3.18e-04  5.24e-02     6s
  11   3.25318012e+04  3.27742243e+04  1.72e-11 1.70e-04  2.26e-02     6s
  12   3.26309921e+04  3.26705601e+04  3.26e-11 6.63e-05  3.53e-03     6s
  13   3.26425534e+04  3.26552245e+04  6.63e-11 2.59e-05  1.10e-03     6s
  14   3.26453727e+04  3.26492049e+04  1.05e-10 8.24e-06  3.30e-04     6s
  15   3.26464055e+04  3.26470613e+04  8.61e-10 1.11e-06  5.59e-05     6s
  16   3.26465547e+04  3.26467147e+04  3.13e-09 1.26e-07  1.32e-05     6s
  17   3.26466439e+04  3.26466693e+04  4.84e-10 5.56e-08  2.08e-06     6s
  18   3.26466625e+04  3.26466632e+04  1.51e-10 2.08e-07  6.34e-08     6s
  19   3.26466629e+04  3.26466629e+04  1.11e-09 1.62e-08  8.30e-11     6s

Barrier solved model in 19 iterations and 5.69 seconds (3.49 work units)
Optimal objective 3.26466629e+04

